22
15 20
15 16
15 10
15 19
15 0
15 13
15 21
15 9
15 2
20 17
20 13
20 10
20 16
20 1
20 12
20 2
20 14
17 13
17 12
17 18
17 5
17 7
17 6
17 16
17 9
13 6
13 19
13 9
13 4
13 11
13 3
18 19
18 14
18 10
18 3
18 8
18 6
18 4
18 16
19 7
19 14
19 1
19 2
19 21
19 6
2 5
2 11
2 8
2 4
2 1
2 21
5 11
5 14
5 0
5 10
5 16
5 6
5 12
1 11
1 21
1 10
1 3
1 9
1 7
11 21
11 16
11 3
11 4
11 8
6 7
6 3
6 0
6 21
7 8
7 14
7 4
7 10
7 9
14 10
14 21
14 12
14 8
10 3
10 9
12 3
12 8
12 4
12 0
12 16
0 4
0 21
0 8
0 9
0 16
4 8
4 3
8 21
9 16
9 3
